\ENCODING=ISO-8859-1
\Problem name: MIPCplexWrapper

Minimize
 obj1: X_INTRODUCED_90_
Subject To
 p_lin_0:   - X_INTRODUCED_91_ - X_INTRODUCED_92_ - X_INTRODUCED_93_
            - X_INTRODUCED_94_ - X_INTRODUCED_95_ - X_INTRODUCED_96_
            - X_INTRODUCED_97_ - X_INTRODUCED_98_ - X_INTRODUCED_99_
            - X_INTRODUCED_101_ - X_INTRODUCED_102_ - 2 X_INTRODUCED_103_ <= -1
 p_eq_1:    - X_INTRODUCED_71_ <= 0
 p_eq_2:    - X_INTRODUCED_72_ <= 0
 p_eq_3:    - X_INTRODUCED_73_ <= 0
 p_eq_4:    - X_INTRODUCED_74_ <= 0
 p_eq_5:    - X_INTRODUCED_75_ <= 0
 p_eq_6:    - X_INTRODUCED_76_ <= 0
 p_eq_7:    - X_INTRODUCED_77_ <= 0
 p_eq_8:    - X_INTRODUCED_78_ <= 0
 p_eq_9:    - X_INTRODUCED_79_ <= 0
 p_eq_10:   - X_INTRODUCED_80_ <= 0
 p_eq_11:   - X_INTRODUCED_81_ <= 0
 p_eq_12:   - X_INTRODUCED_82_ <= 0
 p_eq_13:   - X_INTRODUCED_83_ <= 0
 p_eq_14:   - X_INTRODUCED_84_ <= 0
 p_eq_15:   - X_INTRODUCED_85_ <= 0
 p_eq_16:   - X_INTRODUCED_86_ <= 0
 p_eq_17:   - X_INTRODUCED_87_ <= 0
 p_eq_18:   - X_INTRODUCED_88_ <= 0
 p_eq_19:   - X_INTRODUCED_89_ <= 0
 p_eq_20:   X_INTRODUCED_71_ <= 50
 p_eq_21:   X_INTRODUCED_72_ <= 50
 p_eq_22:   X_INTRODUCED_73_ <= 50
 p_eq_23:   X_INTRODUCED_74_ <= 50
 p_eq_24:   X_INTRODUCED_75_ <= 50
 p_eq_25:   X_INTRODUCED_76_ <= 50
 p_eq_26:   X_INTRODUCED_77_ <= 50
 p_eq_27:   X_INTRODUCED_78_ <= 50
 p_eq_28:   X_INTRODUCED_79_ <= 50
 p_eq_29:   X_INTRODUCED_80_ <= 50
 p_eq_30:   X_INTRODUCED_81_ <= 50
 p_eq_31:   X_INTRODUCED_82_ <= 50
 p_eq_32:   X_INTRODUCED_83_ <= 50
 p_eq_33:   X_INTRODUCED_84_ <= 50
 p_eq_34:   X_INTRODUCED_85_ <= 50
 p_eq_35:   X_INTRODUCED_86_ <= 50
 p_eq_36:   X_INTRODUCED_87_ <= 50
 p_eq_37:   X_INTRODUCED_88_ <= 50
 p_eq_38:   X_INTRODUCED_89_ <= 50
 p_lin_39:  - X_INTRODUCED_72_ + X_INTRODUCED_84_ + X_INTRODUCED_85_  = 0
 p_lin_40:  - 8 X_INTRODUCED_71_ - X_INTRODUCED_72_ + 2 X_INTRODUCED_73_
            - 2 X_INTRODUCED_74_ + 2 X_INTRODUCED_79_ - X_INTRODUCED_81_
            + X_INTRODUCED_82_ + X_INTRODUCED_83_  = 0
 p_lin_41:  X_INTRODUCED_72_ - X_INTRODUCED_73_ + X_INTRODUCED_74_
            - X_INTRODUCED_75_  = 0
 p_lin_42:  - X_INTRODUCED_71_ + X_INTRODUCED_73_ - X_INTRODUCED_74_
            - X_INTRODUCED_76_ + X_INTRODUCED_77_ + X_INTRODUCED_78_
            - X_INTRODUCED_79_ - X_INTRODUCED_80_  = 0
 p_lin_43:  3 X_INTRODUCED_79_ - X_INTRODUCED_86_  = 0
 p_lin_44:  3 X_INTRODUCED_80_ - X_INTRODUCED_87_  = 0
 p_lin_45:  - X_INTRODUCED_71_ + X_INTRODUCED_75_ + X_INTRODUCED_88_  = 0
 p_lin_46:  X_INTRODUCED_76_ - X_INTRODUCED_77_ - X_INTRODUCED_78_
            - X_INTRODUCED_81_ + X_INTRODUCED_82_  = 0
 p_lin_47:  - X_INTRODUCED_71_ + X_INTRODUCED_81_ - X_INTRODUCED_82_
            + X_INTRODUCED_89_  = 0
 p_lin_48:  2 X_INTRODUCED_73_ - 2 X_INTRODUCED_74_ + 2 X_INTRODUCED_77_
            + 2 X_INTRODUCED_78_ - 4 X_INTRODUCED_80_ - 2 X_INTRODUCED_81_
            + 2 X_INTRODUCED_82_ - X_INTRODUCED_83_  = 0
 p_lin_49:  X_INTRODUCED_92_ + X_INTRODUCED_93_ <= 1
 p_lin_50:  X_INTRODUCED_98_ + X_INTRODUCED_99_ <= 1
 p_eq_53:   X_INTRODUCED_72_ <= 1
 p_eq_66:   X_INTRODUCED_79_ <= 1
 p_eq_67:   X_INTRODUCED_80_ <= 1
 p_eq_74:   X_INTRODUCED_84_ <= 1
 p_eq_75:   X_INTRODUCED_85_ <= 1
 p_eq_76:   X_INTRODUCED_86_ <= 1
 p_eq_77:   X_INTRODUCED_87_ <= 1
 p_lin_82:  - X_INTRODUCED_90_ + X_INTRODUCED_91_ + X_INTRODUCED_92_
            + X_INTRODUCED_93_ + X_INTRODUCED_94_ + X_INTRODUCED_95_
            + X_INTRODUCED_96_ + X_INTRODUCED_97_ + X_INTRODUCED_98_
            + X_INTRODUCED_99_ + X_INTRODUCED_101_ + X_INTRODUCED_102_
            + 2 X_INTRODUCED_103_  = 0
 p_lin_83:  - X_INTRODUCED_72_ + X_INTRODUCED_84_ + X_INTRODUCED_85_
            - X_INTRODUCED_150_  = 0
 p_lin_84:  - 8 X_INTRODUCED_71_ - X_INTRODUCED_72_ + 2 X_INTRODUCED_73_
            - 2 X_INTRODUCED_74_ + 2 X_INTRODUCED_79_ - X_INTRODUCED_81_
            + X_INTRODUCED_82_ + X_INTRODUCED_83_ - X_INTRODUCED_161_  = 0
 p_lin_85:  X_INTRODUCED_72_ - X_INTRODUCED_73_ + X_INTRODUCED_74_
            - X_INTRODUCED_75_ - X_INTRODUCED_166_  = 0
 p_lin_86:  - X_INTRODUCED_71_ + X_INTRODUCED_73_ - X_INTRODUCED_74_
            - X_INTRODUCED_76_ + X_INTRODUCED_77_ + X_INTRODUCED_78_
            - X_INTRODUCED_79_ - X_INTRODUCED_80_ - X_INTRODUCED_174_  = 0
 p_lin_87:  3 X_INTRODUCED_79_ - X_INTRODUCED_86_ - X_INTRODUCED_180_  = 0
 p_lin_88:  3 X_INTRODUCED_80_ - X_INTRODUCED_87_ - X_INTRODUCED_185_  = 0
 p_lin_89:  - X_INTRODUCED_71_ + X_INTRODUCED_75_ + X_INTRODUCED_88_
            - X_INTRODUCED_187_  = 0
 p_lin_90:  X_INTRODUCED_76_ - X_INTRODUCED_77_ - X_INTRODUCED_78_
            - X_INTRODUCED_81_ + X_INTRODUCED_82_ - X_INTRODUCED_191_  = 0
 p_lin_91:  - X_INTRODUCED_71_ + X_INTRODUCED_81_ - X_INTRODUCED_82_
            + X_INTRODUCED_89_ - X_INTRODUCED_195_  = 0
 p_lin_92:  2 X_INTRODUCED_73_ - 2 X_INTRODUCED_74_ + 2 X_INTRODUCED_77_
            + 2 X_INTRODUCED_78_ - 4 X_INTRODUCED_80_ - 2 X_INTRODUCED_81_
            + 2 X_INTRODUCED_82_ - X_INTRODUCED_83_ - X_INTRODUCED_205_  = 0
 p_lin_93:  - X_INTRODUCED_91_ - X_INTRODUCED_215_  = -1
 p_lin_94:  - X_INTRODUCED_71_ - X_INTRODUCED_219_  = -1.00000100000001
 p_lin_95:  X_INTRODUCED_71_ - X_INTRODUCED_220_  = 1
 p_lin_96:  - X_INTRODUCED_92_ - X_INTRODUCED_221_  = -1
 p_lin_97:  - X_INTRODUCED_73_ - X_INTRODUCED_223_  = -1.00000100000001
 p_lin_98:  X_INTRODUCED_73_ - X_INTRODUCED_224_  = 1
 p_lin_99:  - X_INTRODUCED_93_ - X_INTRODUCED_225_  = -1
 p_lin_100: - X_INTRODUCED_74_ - X_INTRODUCED_227_  = -1.00000100000001
 p_lin_101: X_INTRODUCED_74_ - X_INTRODUCED_228_  = 1
 p_lin_102: - X_INTRODUCED_94_ - X_INTRODUCED_229_  = -1
 p_lin_103: - X_INTRODUCED_75_ - X_INTRODUCED_231_  = -1.00000100000001
 p_lin_104: X_INTRODUCED_75_ - X_INTRODUCED_232_  = 1
 p_lin_105: - X_INTRODUCED_95_ - X_INTRODUCED_233_  = -1
 p_lin_106: - X_INTRODUCED_76_ - X_INTRODUCED_235_  = -1.00000100000001
 p_lin_107: X_INTRODUCED_76_ - X_INTRODUCED_236_  = 1
 p_lin_108: - X_INTRODUCED_96_ - X_INTRODUCED_237_  = -1
 p_lin_109: - X_INTRODUCED_77_ - X_INTRODUCED_239_  = -1.00000100000001
 p_lin_110: X_INTRODUCED_77_ - X_INTRODUCED_240_  = 1
 p_lin_111: - X_INTRODUCED_97_ - X_INTRODUCED_241_  = -1
 p_lin_112: - X_INTRODUCED_78_ - X_INTRODUCED_243_  = -1.00000100000001
 p_lin_113: X_INTRODUCED_78_ - X_INTRODUCED_244_  = 1
 p_lin_114: - X_INTRODUCED_98_ - X_INTRODUCED_245_  = -1
 p_lin_115: - X_INTRODUCED_81_ - X_INTRODUCED_247_  = -1.00000100000001
 p_lin_116: X_INTRODUCED_81_ - X_INTRODUCED_248_  = 1
 p_lin_117: - X_INTRODUCED_99_ - X_INTRODUCED_249_  = -1
 p_lin_118: - X_INTRODUCED_82_ - X_INTRODUCED_251_  = -1.00000100000001
 p_lin_119: X_INTRODUCED_82_ - X_INTRODUCED_252_  = 1
 p_lin_120: - X_INTRODUCED_103_ - X_INTRODUCED_253_  = -1
 p_lin_121: - X_INTRODUCED_83_ - X_INTRODUCED_255_  = -1.00000100000001
 p_lin_122: X_INTRODUCED_83_ - X_INTRODUCED_256_  = 1
 p_lin_123: - X_INTRODUCED_101_ - X_INTRODUCED_257_  = -1
 p_lin_124: - X_INTRODUCED_88_ - X_INTRODUCED_259_  = -1.00000100000001
 p_lin_125: X_INTRODUCED_88_ - X_INTRODUCED_260_  = 1
 p_lin_126: - X_INTRODUCED_102_ - X_INTRODUCED_261_  = -1
 p_lin_127: - X_INTRODUCED_89_ - X_INTRODUCED_263_  = -1.00000100000001
 p_lin_128: X_INTRODUCED_89_ - X_INTRODUCED_264_  = 1
 p_ind_51: X_INTRODUCED_215_ = 0 -> X_INTRODUCED_219_ =< 0
 p_ind_52: X_INTRODUCED_91_ = 0 -> X_INTRODUCED_220_ =< 0
 p_ind_54: X_INTRODUCED_221_ = 0 -> X_INTRODUCED_223_ =< 0
 p_ind_55: X_INTRODUCED_92_ = 0 -> X_INTRODUCED_224_ =< 0
 p_ind_56: X_INTRODUCED_225_ = 0 -> X_INTRODUCED_227_ =< 0
 p_ind_57: X_INTRODUCED_93_ = 0 -> X_INTRODUCED_228_ =< 0
 p_ind_58: X_INTRODUCED_229_ = 0 -> X_INTRODUCED_231_ =< 0
 p_ind_59: X_INTRODUCED_94_ = 0 -> X_INTRODUCED_232_ =< 0
 p_ind_60: X_INTRODUCED_233_ = 0 -> X_INTRODUCED_235_ =< 0
 p_ind_61: X_INTRODUCED_95_ = 0 -> X_INTRODUCED_236_ =< 0
 p_ind_62: X_INTRODUCED_237_ = 0 -> X_INTRODUCED_239_ =< 0
 p_ind_63: X_INTRODUCED_96_ = 0 -> X_INTRODUCED_240_ =< 0
 p_ind_64: X_INTRODUCED_241_ = 0 -> X_INTRODUCED_243_ =< 0
 p_ind_65: X_INTRODUCED_97_ = 0 -> X_INTRODUCED_244_ =< 0
 p_ind_68: X_INTRODUCED_245_ = 0 -> X_INTRODUCED_247_ =< 0
 p_ind_69: X_INTRODUCED_98_ = 0 -> X_INTRODUCED_248_ =< 0
 p_ind_70: X_INTRODUCED_249_ = 0 -> X_INTRODUCED_251_ =< 0
 p_ind_71: X_INTRODUCED_99_ = 0 -> X_INTRODUCED_252_ =< 0
 p_ind_72: X_INTRODUCED_253_ = 0 -> X_INTRODUCED_255_ =< 0
 p_ind_73: X_INTRODUCED_103_ = 0 -> X_INTRODUCED_256_ =< 0
 p_ind_78: X_INTRODUCED_257_ = 0 -> X_INTRODUCED_259_ =< 0
 p_ind_79: X_INTRODUCED_101_ = 0 -> X_INTRODUCED_260_ =< 0
 p_ind_80: X_INTRODUCED_261_ = 0 -> X_INTRODUCED_263_ =< 0
 p_ind_81: X_INTRODUCED_102_ = 0 -> X_INTRODUCED_264_ =< 0
Bounds
      X_INTRODUCED_71_ Free
      X_INTRODUCED_72_ Free
      X_INTRODUCED_73_ Free
      X_INTRODUCED_74_ Free
      X_INTRODUCED_75_ Free
      X_INTRODUCED_76_ Free
      X_INTRODUCED_77_ Free
      X_INTRODUCED_78_ Free
      X_INTRODUCED_79_ Free
      X_INTRODUCED_80_ Free
      X_INTRODUCED_81_ Free
      X_INTRODUCED_82_ Free
      X_INTRODUCED_83_ Free
      X_INTRODUCED_84_ Free
      X_INTRODUCED_85_ Free
      X_INTRODUCED_86_ Free
      X_INTRODUCED_87_ Free
      X_INTRODUCED_88_ Free
      X_INTRODUCED_89_ Free
 1 <= X_INTRODUCED_90_ <= 12
 0 <= X_INTRODUCED_91_ <= 1
 0 <= X_INTRODUCED_92_ <= 1
 0 <= X_INTRODUCED_93_ <= 1
 0 <= X_INTRODUCED_94_ <= 1
 0 <= X_INTRODUCED_95_ <= 1
 0 <= X_INTRODUCED_96_ <= 1
 0 <= X_INTRODUCED_97_ <= 1
 0 <= X_INTRODUCED_98_ <= 1
 0 <= X_INTRODUCED_99_ <= 1
 0 <= X_INTRODUCED_101_ <= 1
 0 <= X_INTRODUCED_102_ <= 1
 0 <= X_INTRODUCED_103_ <= 1
      X_INTRODUCED_150_ Free
      X_INTRODUCED_161_ Free
      X_INTRODUCED_166_ Free
      X_INTRODUCED_174_ Free
      X_INTRODUCED_180_ Free
      X_INTRODUCED_185_ Free
      X_INTRODUCED_187_ Free
      X_INTRODUCED_191_ Free
      X_INTRODUCED_195_ Free
      X_INTRODUCED_205_ Free
 0 <= X_INTRODUCED_215_ <= 1
      X_INTRODUCED_219_ Free
      X_INTRODUCED_220_ Free
 0 <= X_INTRODUCED_221_ <= 1
      X_INTRODUCED_223_ Free
      X_INTRODUCED_224_ Free
 0 <= X_INTRODUCED_225_ <= 1
      X_INTRODUCED_227_ Free
      X_INTRODUCED_228_ Free
 0 <= X_INTRODUCED_229_ <= 1
      X_INTRODUCED_231_ Free
      X_INTRODUCED_232_ Free
 0 <= X_INTRODUCED_233_ <= 1
      X_INTRODUCED_235_ Free
      X_INTRODUCED_236_ Free
 0 <= X_INTRODUCED_237_ <= 1
      X_INTRODUCED_239_ Free
      X_INTRODUCED_240_ Free
 0 <= X_INTRODUCED_241_ <= 1
      X_INTRODUCED_243_ Free
      X_INTRODUCED_244_ Free
 0 <= X_INTRODUCED_245_ <= 1
      X_INTRODUCED_247_ Free
      X_INTRODUCED_248_ Free
 0 <= X_INTRODUCED_249_ <= 1
      X_INTRODUCED_251_ Free
      X_INTRODUCED_252_ Free
 0 <= X_INTRODUCED_253_ <= 1
      X_INTRODUCED_255_ Free
      X_INTRODUCED_256_ Free
 0 <= X_INTRODUCED_257_ <= 1
      X_INTRODUCED_259_ Free
      X_INTRODUCED_260_ Free
 0 <= X_INTRODUCED_261_ <= 1
      X_INTRODUCED_263_ Free
      X_INTRODUCED_264_ Free
Generals
 X_INTRODUCED_90_  X_INTRODUCED_91_  X_INTRODUCED_92_  X_INTRODUCED_93_ 
 X_INTRODUCED_94_  X_INTRODUCED_95_  X_INTRODUCED_96_  X_INTRODUCED_97_ 
 X_INTRODUCED_98_  X_INTRODUCED_99_  X_INTRODUCED_101_  X_INTRODUCED_102_ 
 X_INTRODUCED_103_  X_INTRODUCED_215_  X_INTRODUCED_221_  X_INTRODUCED_225_ 
 X_INTRODUCED_229_  X_INTRODUCED_233_  X_INTRODUCED_237_  X_INTRODUCED_241_ 
 X_INTRODUCED_245_  X_INTRODUCED_249_  X_INTRODUCED_253_  X_INTRODUCED_257_ 
 X_INTRODUCED_261_ 
End
